nServices=10;
nDrivers=10;
nBuses=10;
startingTime=[98 73 40 123 184 172 165 44 102 137];
durationTime=[22 11 12 21 10 10 27 13 26 16];
durationDist=[53 48 47 21 56 47 38 24 45 29];
passangers=[16 10 4 25 10 6 23 9 23 24];
capacity=[17 22 28 28 24 28 21 29 15 13];
costTime=[7 8 10 8 9 8 8 8 10 9];
costDist=[6 3 4 3 2 2 2 6 4 4];
maxTime=[20 40 30 44 44 59 31 33 42 24];
costBM=[6 8 5 8 8 5 8 8 6 8];
costEM=[12 11 12 12 12 10 8 8 10 9];
BM=[19 18 12 13 16 11 17 17 18 16];
